c nIsolatedPIs 0
c maxPI 16
p cnf 82 199
c gate 17 6 -14 0
6 -17 0
-14 -17 0
-6 14 17 0
c gate 18 -6 14 0
-6 -18 0
14 -18 0
6 -14 18 0
c gate 19 -17 -18 0
-17 -19 0
-18 -19 0
17 18 19 0
c gate 20 -1 9 0
-1 -20 0
9 -20 0
1 -9 20 0
c gate 21 2 -10 0
2 -21 0
-10 -21 0
-2 10 21 0
c gate 22 -2 10 0
-2 -22 0
10 -22 0
2 -10 22 0
c gate 23 -21 -22 0
-21 -23 0
-22 -23 0
21 22 23 0
c gate 24 1 -9 0
1 -24 0
-9 -24 0
-1 9 24 0
c gate 25 23 -24 0
23 -25 0
-24 -25 0
-23 24 25 0
c gate 26 -20 25 0
-20 -26 0
25 -26 0
20 -25 26 0
c gate 27 4 -12 0
4 -27 0
-12 -27 0
-4 12 27 0
c gate 28 -4 12 0
-4 -28 0
12 -28 0
4 -12 28 0
c gate 29 -27 -28 0
-27 -29 0
-28 -29 0
27 28 29 0
c gate 30 -3 11 0
-3 -30 0
11 -30 0
3 -11 30 0
c gate 31 3 -11 0
3 -31 0
-11 -31 0
-3 11 31 0
c gate 32 -30 -31 0
-30 -32 0
-31 -32 0
30 31 32 0
c gate 33 29 32 0
29 -33 0
32 -33 0
-29 -32 33 0
c gate 34 26 33 0
26 -34 0
33 -34 0
-26 -33 34 0
c gate 35 5 -13 0
5 -35 0
-13 -35 0
-5 13 35 0
c gate 36 -5 13 0
-5 -36 0
13 -36 0
5 -13 36 0
c gate 37 -35 -36 0
-35 -37 0
-36 -37 0
35 36 37 0
c gate 38 19 37 0
19 -38 0
37 -38 0
-19 -37 38 0
c gate 39 -8 16 0
-8 -39 0
16 -39 0
8 -16 39 0
c gate 40 8 -16 0
8 -40 0
-16 -40 0
-8 16 40 0
c gate 41 -39 -40 0
-39 -41 0
-40 -41 0
39 40 41 0
c gate 42 7 -15 0
7 -42 0
-15 -42 0
-7 15 42 0
c gate 43 -7 15 0
-7 -43 0
15 -43 0
7 -15 43 0
c gate 44 -42 -43 0
-42 -44 0
-43 -44 0
42 43 44 0
c gate 45 41 44 0
41 -45 0
44 -45 0
-41 -44 45 0
c gate 46 38 45 0
38 -46 0
45 -46 0
-38 -45 46 0
c gate 47 34 46 0
34 -47 0
46 -47 0
-34 -46 47 0
c gate 48 -18 -36 0
-18 -48 0
-36 -48 0
18 36 48 0
c gate 49 -17 -48 0
-17 -49 0
-48 -49 0
17 48 49 0
c gate 50 -38 -49 0
-38 -50 0
-49 -50 0
38 49 50 0
c gate 51 -42 -50 0
-42 -51 0
-50 -51 0
42 50 51 0
c gate 52 -43 -51 0
-43 -52 0
-51 -52 0
43 51 52 0
c gate 53 -40 -52 0
-40 -53 0
-52 -53 0
40 52 53 0
c gate 54 -39 -53 0
-39 -54 0
-53 -54 0
39 53 54 0
c gate 55 -22 -25 0
-22 -55 0
-25 -55 0
22 25 55 0
c gate 56 -31 -55 0
-31 -56 0
-55 -56 0
31 55 56 0
c gate 57 -30 -56 0
-30 -57 0
-56 -57 0
30 56 57 0
c gate 58 -27 -57 0
-27 -58 0
-57 -58 0
27 57 58 0
c gate 59 -28 -58 0
-28 -59 0
-58 -59 0
28 58 59 0
c gate 60 46 59 0
46 -60 0
59 -60 0
-46 -59 60 0
c gate 61 -54 -60 0
-54 -61 0
-60 -61 0
54 60 61 0
c gate 62 -47 -61 0
-47 -62 0
-61 -62 0
47 61 62 0
c gate 63 -34 -59 0
-34 -63 0
-59 -63 0
34 59 63 0
c gate 64 37 -63 0
37 -64 0
-63 -64 0
-37 63 64 0
c gate 65 -35 -54 0
-35 -65 0
-54 -65 0
35 54 65 0
c gate 66 35 54 0
35 -66 0
54 -66 0
-35 -54 66 0
c gate 67 -65 -66 0
-65 -67 0
-66 -67 0
65 66 67 0
c gate 68 -64 67 0
-64 -68 0
67 -68 0
64 -67 68 0
c gate 69 62 -68 0
62 -69 0
-68 -69 0
-62 68 69 0
c gate 70 -35 -59 0
-35 -70 0
-59 -70 0
35 59 70 0
c gate 71 -36 -70 0
-36 -71 0
-70 -71 0
36 70 71 0
c gate 72 -62 -71 0
-62 -72 0
-71 -72 0
62 71 72 0
c gate 73 -69 -72 0
-69 -73 0
-72 -73 0
69 72 73 0
c gate 74 19 -73 0
19 -74 0
-73 -74 0
-19 73 74 0
c gate 75 -19 73 0
-19 -75 0
73 -75 0
19 -73 75 0
c gate 76 -74 -75 0
-74 -76 0
-75 -76 0
74 75 76 0
c gate 77 19 -68 0
19 -77 0
-68 -77 0
-19 68 77 0
c gate 78 -19 68 0
-19 -78 0
68 -78 0
19 -68 78 0
c gate 79 -77 -78 0
-77 -79 0
-78 -79 0
77 78 79 0
c gate 80 -76 79 0
-76 -80 0
79 -80 0
76 -79 80 0
c gate 81 76 -79 0
76 -81 0
-79 -81 0
-76 79 81 0
c gate 82 -80 -81 0
-80 -82 0
-81 -82 0
80 81 82 0
c PO
-82 0
